500
750 750
1 599 844
2 597 763
3 597 268
4 595 320
5 592 250
6 592 24
7 592 236
8 591 511
9 591 267
10 590 77
11 590 470
12 589 13
13 589 351
14 588 98
15 588 903
16 586 553
17 582 105
18 582 85
19 581 649
20 581 657
21 580 421
22 575 401
23 574 595
24 572 135
25 568 356
26 568 671
27 568 88
28 567 371
29 567 958
30 566 415
31 566 780
32 566 653
33 564 98
34 564 775
35 564 722
36 562 576
37 560 717
38 559 15
39 557 384
40 556 487
41 556 178
42 556 88
43 555 618
44 554 305
45 554 336
46 553 410
47 552 321
48 550 325
49 547 843
50 547 714
51 546 264
52 546 578
53 546 574
54 545 334
55 543 581
56 543 281
57 542 622
58 541 562
59 538 153
60 537 249
61 536 27
62 535 625
63 535 232
64 534 596
65 533 641
66 533 727
67 533 51
68 531 844
69 529 638
70 528 495
71 526 807
72 526 512
73 525 275
74 523 470
75 523 38
76 522 131
77 521 975
78 521 181
79 521 588
80 519 597
81 519 916
82 519 790
83 518 533
84 517 594
85 516 861
86 516 873
87 515 49
88 515 755
89 515 251
90 513 155
91 512 830
92 511 300
93 509 547
94 507 485
95 506 702
96 506 323
97 506 597
98 505 879
99 504 926
100 503 923
101 502 472
102 501 554
103 500 490
104 500 711
105 497 668
106 497 204
107 497 590
108 496 632
109 495 799
110 493 614
111 492 976
112 491 259
113 490 990
114 490 189
115 489 605
116 488 453
117 487 664
118 487 699
119 486 100
120 486 108
121 485 51
122 482 79
123 482 66
124 482 39
125 482 207
126 480 865
127 480 833
128 480 263
129 479 697
130 478 744
131 477 263
132 477 835
133 477 660
134 476 233
135 475 531
136 474 723
137 474 220
138 473 464
139 471 134
140 471 390
141 471 867
142 471 738
143 470 50
144 469 301
145 468 60
146 467 731
147 467 225
148 467 62
149 466 226
150 465 287
151 463 204
152 462 72
153 459 258
154 459 226
155 458 471
156 456 720
157 456 338
158 455 218
159 454 710
160 453 36
161 452 177
162 451 64
163 451 492
164 447 144
165 446 643
166 446 959
167 445 836
168 444 76
169 441 746
170 440 782
171 439 829
172 438 586
173 438 213
174 438 828
175 436 665
176 436 170
177 436 74
178 435 845
179 434 262
180 433 684
181 433 294
182 432 455
183 432 453
184 432 402
185 430 28
186 430 246
187 426 387
188 426 678
189 426 572
190 424 497
191 423 904
192 423 491
193 416 492
194 415 882
195 414 348
196 413 396
197 412 122
198 411 186
199 411 380
200 410 492
201 410 397
202 409 837
203 408 128
204 408 782
205 408 506
206 407 506
207 406 299
208 402 232
209 401 704
210 401 449
211 400 84
212 398 728
213 397 484
214 396 727
215 395 213
216 394 938
217 393 409
218 393 656
219 393 996
220 392 132
221 392 442
222 391 424
223 391 117
224 390 968
225 390 467
226 390 554
227 389 602
228 389 294
229 389 924
230 388 650
231 386 363
232 385 995
233 384 79
234 384 11
235 383 725
236 383 395
237 381 477
238 379 32
239 379 312
240 379 118
241 378 111
242 377 428
243 377 276
244 376 942
245 376 188
246 376 327
247 376 170
248 373 223
249 372 477
250 370 659
251 370 942
252 370 179
253 370 920
254 369 225
255 368 259
256 368 15
257 367 17
258 367 727
259 366 365
260 365 822
261 364 866
262 363 937
263 363 449
264 362 584
265 358 45
266 358 798
267 358 37
268 357 708
269 356 449
270 354 302
271 353 15
272 351 230
273 351 154
274 351 814
275 350 278
276 350 441
277 348 891
278 342 473
279 341 482
280 341 833
281 340 597
282 339 948
283 338 22
284 338 556
285 337 892
286 335 285
287 335 916
288 334 162
289 333 241
290 332 779
291 331 812
292 328 171
293 327 189
294 326 682
295 325 591
296 324 44
297 324 300
298 323 347
299 323 213
300 320 796
301 319 505
302 319 288
303 318 809
304 315 930
305 315 277
306 314 437
307 314 184
308 313 967
309 312 708
310 311 266
311 310 179
312 310 67
313 309 577
314 308 327
315 308 202
316 307 731
317 306 203
318 306 372
319 305 626
320 305 591
321 303 801
322 302 437
323 301 941
324 300 415
325 299 173
326 299 123
327 297 918
328 295 887
329 295 268
330 294 2
331 293 263
332 293 813
333 292 327
334 292 825
335 292 946
336 290 371
337 290 48
338 290 607
339 289 615
340 288 955
341 288 392
342 288 365
343 286 896
344 285 935
345 285 681
346 283 342
347 282 85
348 278 592
349 277 744
350 275 857
351 275 917
352 275 324
353 274 207
354 274 443
355 273 951
356 273 659
357 269 351
358 267 67
359 264 995
360 263 272
361 262 910
362 262 180
363 262 706
364 261 523
365 261 961
366 260 588
367 260 234
368 258 29
369 257 280
370 256 617
371 256 778
372 254 721
373 254 294
374 253 635
375 253 530
376 253 75
377 252 581
378 252 679
379 252 827
380 251 658
381 250 871
382 250 992
383 249 320
384 247 678
385 242 528
386 242 434
387 242 299
388 242 805
389 242 326
390 241 87
391 241 552
392 241 659
393 240 254
394 239 719
395 239 256
396 239 196
397 239 860
398 239 37
399 237 675
400 234 205
401 234 334
402 232 55
403 232 935
404 232 2
405 232 439
406 231 163
407 230 3
408 230 964
409 229 17
410 229 244
411 227 699
412 226 224
413 225 157
414 225 804
415 224 408
416 224 685
417 222 782
418 221 467
419 220 520
420 220 304
421 217 890
422 217 204
423 216 893
424 216 836
425 215 882
426 213 297
427 213 8
428 210 233
429 208 5
430 207 67
431 207 897
432 205 345
433 205 649
434 204 68
435 203 437
436 202 349
437 202 186
438 201 239
439 201 582
440 200 384
441 199 341
442 198 383
443 198 42
444 197 336
445 196 149
446 196 360
447 194 624
448 193 936
449 193 298
450 192 739
451 190 965
452 190 164
453 189 861
454 188 250
455 188 909
456 186 930
457 186 23
458 185 359
459 185 949
460 184 984
461 183 301
462 179 955
463 179 164
464 179 704
465 179 231
466 179 382
467 178 465
468 178 567
469 177 168
470 174 952
471 174 330
472 173 161
473 173 118
474 173 372
475 170 123
476 168 27
477 167 123
478 167 3
479 166 783
480 166 648
481 164 50
482 162 667
483 162 936
484 161 754
485 161 202
486 161 992
487 159 285
488 158 422
489 158 189
490 157 793
491 157 286
492 157 432
493 156 189
494 156 446
495 155 816
496 155 407
497 154 383
498 152 814
499 150 536
500 150 639
